9
2147483647 54 97 84 53 54 50 72 27 
54 2147483647 99 94 65 8 4 76 76 
97 99 2147483647 47 51 37 91 74 24 
84 94 47 2147483647 9 92 75 14 98 
53 65 51 9 2147483647 9 92 55 56 
54 8 37 92 9 2147483647 79 79 86 
50 4 91 75 92 79 2147483647 21 16 
72 76 74 14 55 79 21 2147483647 74 
27 76 24 98 56 86 16 74 2147483647 
